NAME: P-n19-k2
COMMENT: GVRP
DIMENSION:  19 
VEHICLES:  1 
GVRP_SETS:  7 
CAPACITY:  160 
NODE_COORD_SECTION 
1 30.000000 40.000000
2 37.000000 52.000000
3 49.000000 43.000000
4 52.000000 64.000000
5 31.000000 62.000000
6 52.000000 33.000000
7 42.000000 41.000000
8 52.000000 41.000000
9 57.000000 58.000000
10 62.000000 42.000000
11 42.000000 57.000000
12 27.000000 68.000000
13 43.000000 67.000000
14 58.000000 27.000000
15 37.000000 69.000000
16 61.000000 33.000000
17 62.000000 63.000000
18 63.000000 69.000000
19 45.000000 35.000000
GVRP_SET_SECTION 
 1 18  17 -1
 2  14  6  16 -1
 3  12  5  15 -1
 4  7  3  8  19 -1
 5  10 -1
 6  11  2  13 -1
 7  9  4 -1
 DEMAND_SECTION
 1 11 
 2 18 
 3 13 
 4 22 
 5 14 
 6 13 
 7 22 
INTRA_CLUSTER_DISTANCE
100000000 100000000 100000000 100000000 100000000 100000000 100000000 100000000 100000000 100000000 100000000 100000000 100000000 100000000 100000000 100000000 100000000 100000000 100000000 
100000000 100000000 100000000 100000000 100000000 100000000 100000000 100000000 100000000 100000000 26 100000000 17 100000000 100000000 100000000 100000000 100000000 100000000 
100000000 100000000 100000000 100000000 100000000 100000000 20 23 100000000 100000000 100000000 100000000 100000000 100000000 100000000 100000000 100000000 100000000 21 
100000000 100000000 100000000 100000000 100000000 100000000 100000000 100000000 8 100000000 100000000 100000000 100000000 100000000 100000000 100000000 100000000 100000000 100000000 
100000000 100000000 100000000 100000000 100000000 100000000 100000000 100000000 100000000 100000000 100000000 19 100000000 100000000 17 100000000 100000000 100000000 100000000 
100000000 100000000 100000000 100000000 100000000 100000000 100000000 100000000 100000000 100000000 100000000 100000000 100000000 16 100000000 15 100000000 100000000 100000000 
100000000 100000000 20 100000000 100000000 100000000 100000000 20 100000000 100000000 100000000 100000000 100000000 100000000 100000000 100000000 100000000 100000000 20 
100000000 100000000 23 100000000 100000000 100000000 20 100000000 100000000 100000000 100000000 100000000 100000000 100000000 100000000 100000000 100000000 100000000 18 
100000000 100000000 100000000 8 100000000 100000000 100000000 100000000 100000000 100000000 100000000 100000000 100000000 100000000 100000000 100000000 100000000 100000000 100000000 
100000000 100000000 100000000 100000000 100000000 100000000 100000000 100000000 100000000 100000000 100000000 100000000 100000000 100000000 100000000 100000000 100000000 100000000 100000000 
100000000 26 100000000 100000000 100000000 100000000 100000000 100000000 100000000 100000000 100000000 100000000 23 100000000 100000000 100000000 100000000 100000000 100000000 
100000000 100000000 100000000 100000000 19 100000000 100000000 100000000 100000000 100000000 100000000 100000000 100000000 100000000 16 100000000 100000000 100000000 100000000 
100000000 17 100000000 100000000 100000000 100000000 100000000 100000000 100000000 100000000 23 100000000 100000000 100000000 100000000 100000000 100000000 100000000 100000000 
100000000 100000000 100000000 100000000 100000000 16 100000000 100000000 100000000 100000000 100000000 100000000 100000000 100000000 100000000 17 100000000 100000000 100000000 
100000000 100000000 100000000 100000000 17 100000000 100000000 100000000 100000000 100000000 100000000 16 100000000 100000000 100000000 100000000 100000000 100000000 100000000 
100000000 100000000 100000000 100000000 100000000 15 100000000 100000000 100000000 100000000 100000000 100000000 100000000 17 100000000 100000000 100000000 100000000 100000000 
100000000 100000000 100000000 100000000 100000000 100000000 100000000 100000000 100000000 100000000 100000000 100000000 100000000 100000000 100000000 100000000 100000000 6 100000000 
100000000 100000000 100000000 100000000 100000000 100000000 100000000 100000000 100000000 100000000 100000000 100000000 100000000 100000000 100000000 100000000 6 100000000 100000000 
100000000 100000000 21 100000000 100000000 100000000 20 18 100000000 100000000 100000000 100000000 100000000 100000000 100000000 100000000 100000000 100000000 100000000 
EOF
